check/instances/SOS/sos2a.col
s1
s2
s3
x4
x5
x7
x8
